12639.0
1 1 1 1 1 1 1 1 1 1 1 1 1 1 1 1 1 1 1 1 0 1 1 0 1 1 1 1 1 1 
1 5 
7 8 9 10 
15 16 18 20 35 
17 19 36 
21 22 
23 26 
24 25 
27 28 30 
29 31 
32 33 
0 2 3 4 6 34 
11 12 13 14 
41 69 
52 56 67 
45 66 
61 68 
48 
37 47 
46 57 58 63 
60 

42 
43 53 

38 44 59 
54 
55 64 
51 65 
39 49 62 
40 50 
